unsat
(:cnf-encoding-aux-vars   5
 :eliminated-applications 3
 :eliminated-vars         34
 :max-memory              18.30
 :memory                  18.06
 :nlsat-conflicts         2
 :nlsat-decisions         3
 :nlsat-learned-added     1
 :nlsat-propagations      8
 :num-allocs              10482
 :rlimit-count            19694
 :time                    0.01
 :total-time              0.02)
